# Objective value = 5.7266200000000008e+03
I_0_0 676
I_0_1 767
I_0_2 899
I_0_3 772
I_0_4 851
I_0_5 724
I_0_6 1038
I_1_0 53
I_1_1 5.3000000000000014e+01
I_1_2 0
I_1_3 5.2999999999999986e+01
I_1_4 0
I_1_5 53
I_1_6 0
I_2_0 67
I_2_1 67
I_2_2 0
I_2_3 67
I_2_4 0
I_2_5 67
I_2_6 0
I_3_0 91
I_3_1 0
I_3_2 91
I_3_3 9.0999999999999986e+01
I_3_4 9.0999999999999986e+01
I_3_5 9.0999999999999986e+01
I_3_6 0
I_4_0 55
I_4_1 55
I_4_2 0
I_4_3 55
I_4_4 0
I_4_5 55
I_4_6 0
I_5_0 96
I_5_1 96
I_5_2 48
I_5_3 0
I_5_4 96
I_5_5 4.7999999999999993e+01
I_5_6 0
q_1_0_0 5.3000000000000014e+01
q_1_0_1 -1.4210854715202004e-14
q_1_0_2 1.0599999999999999e+02
q_1_0_3 1.4210854715202004e-14
q_1_0_4 106
q_1_0_5 0
q_1_1_0 0
q_1_1_1 0
q_1_1_2 0
q_1_1_3 0
q_1_1_4 0
q_1_1_5 0
q_2_0_0 67
q_2_0_1 0
q_2_0_2 0
q_2_0_3 0
q_2_0_4 0
q_2_0_5 0
q_2_1_0 0
q_2_1_1 0
q_2_1_2 134
q_2_1_3 0
q_2_1_4 134
q_2_1_5 0
q_3_0_0 0
q_3_0_1 182
q_3_0_2 0
q_3_0_3 9.0999999999999986e+01
q_3_0_4 0
q_3_0_5 0
q_3_1_0 0
q_3_1_1 0
q_3_1_2 91
q_3_1_3 0
q_3_1_4 9.1000000000000014e+01
q_3_1_5 0
q_4_0_0 55
q_4_0_1 0
q_4_0_2 110
q_4_0_3 0
q_4_0_4 110
q_4_0_5 0
q_4_1_0 0
q_4_1_1 0
q_4_1_2 0
q_4_1_3 0
q_4_1_4 0
q_4_1_5 0
q_5_0_0 48
q_5_0_1 0
q_5_0_2 0
q_5_0_3 144
q_5_0_4 0
q_5_0_5 0
q_5_1_0 0
q_5_1_1 0
q_5_1_2 0
q_5_1_3 0
q_5_1_4 0
q_5_1_5 0
y_0_0_0 1
y_0_0_1 1
y_0_0_2 1
y_0_0_3 1
y_0_0_4 1
y_0_0_5 0
y_0_1_0 0
y_0_1_1 0
y_0_1_2 1
y_0_1_3 0
y_0_1_4 1
y_0_1_5 0
y_1_0_0 1.0000000000000002e+00
y_1_0_1 0
y_1_0_2 9.9999999999999978e-01
y_1_0_3 0
y_1_0_4 1
y_1_0_5 0
y_1_1_0 0
y_1_1_1 0
y_1_1_2 0
y_1_1_3 0
y_1_1_4 0
y_1_1_5 0
y_2_0_0 1
y_2_0_1 0
y_2_0_2 0
y_2_0_3 0
y_2_0_4 0
y_2_0_5 0
y_2_1_0 0
y_2_1_1 0
y_2_1_2 9.9999999999999989e-01
y_2_1_3 0
y_2_1_4 1
y_2_1_5 0
y_3_0_0 0
y_3_0_1 1
y_3_0_2 0
y_3_0_3 1
y_3_0_4 0
y_3_0_5 0
y_3_1_0 0
y_3_1_1 0
y_3_1_2 1
y_3_1_3 0
y_3_1_4 1
y_3_1_5 0
y_4_0_0 1
y_4_0_1 0
y_4_0_2 1
y_4_0_3 0
y_4_0_4 1
y_4_0_5 0
y_4_1_0 0
y_4_1_1 0
y_4_1_2 0
y_4_1_3 0
y_4_1_4 0
y_4_1_5 0
y_5_0_0 1
y_5_0_1 0
y_5_0_2 0
y_5_0_3 1
y_5_0_4 0
y_5_0_5 0
y_5_1_0 0
y_5_1_1 0
y_5_1_2 0
y_5_1_3 0
y_5_1_4 0
y_5_1_5 0
x_0_1_0_0 0
x_0_1_0_1 0
x_0_1_0_2 9.9999999999999911e-01
x_0_1_0_3 0
x_0_1_0_4 1
x_0_1_0_5 0
x_0_1_1_0 0
x_0_1_1_1 0
x_0_1_1_2 0
x_0_1_1_3 0
x_0_1_1_4 0
x_0_1_1_5 0
x_0_2_0_0 9.9999999999999978e-01
x_0_2_0_1 0
x_0_2_0_2 0
x_0_2_0_3 0
x_0_2_0_4 0
x_0_2_0_5 0
x_0_2_1_0 0
x_0_2_1_1 0
x_0_2_1_2 1
x_0_2_1_3 0
x_0_2_1_4 1
x_0_2_1_5 0
x_0_3_0_0 0
x_0_3_0_1 2
x_0_3_0_2 0
x_0_3_0_3 1
x_0_3_0_4 0
x_0_3_0_5 0
x_0_3_1_0 0
x_0_3_1_1 0
x_0_3_1_2 1.0000000000000004e+00
x_0_3_1_3 0
x_0_3_1_4 1
x_0_3_1_5 0
x_0_4_0_0 0
x_0_4_0_1 0
x_0_4_0_2 1
x_0_4_0_3 0
x_0_4_0_4 1
x_0_4_0_5 0
x_0_4_1_0 0
x_0_4_1_1 0
x_0_4_1_2 0
x_0_4_1_3 0
x_0_4_1_4 0
x_0_4_1_5 0
x_0_5_0_0 1.0000000000000002e+00
x_0_5_0_1 0
x_0_5_0_2 0
x_0_5_0_3 1
x_0_5_0_4 0
x_0_5_0_5 0
x_0_5_1_0 0
x_0_5_1_1 0
x_0_5_1_2 0
x_0_5_1_3 0
x_0_5_1_4 0
x_0_5_1_5 0
x_1_2_0_0 1.0000000000000002e+00
x_1_2_0_1 0
x_1_2_0_2 0
x_1_2_0_3 0
x_1_2_0_4 0
x_1_2_0_5 0
x_1_2_1_0 0
x_1_2_1_1 0
x_1_2_1_2 0
x_1_2_1_3 0
x_1_2_1_4 0
x_1_2_1_5 0
x_1_3_0_0 0
x_1_3_0_1 0
x_1_3_0_2 0
x_1_3_0_3 0
x_1_3_0_4 0
x_1_3_0_5 0
x_1_3_1_0 0
x_1_3_1_1 0
x_1_3_1_2 0
x_1_3_1_3 0
x_1_3_1_4 0
x_1_3_1_5 0
x_1_4_0_0 1.0000000000000002e+00
x_1_4_0_1 0
x_1_4_0_2 1.0000000000000004e+00
x_1_4_0_3 0
x_1_4_0_4 1
x_1_4_0_5 0
x_1_4_1_0 0
x_1_4_1_1 0
x_1_4_1_2 0
x_1_4_1_3 0
x_1_4_1_4 0
x_1_4_1_5 0
x_1_5_0_0 0
x_1_5_0_1 0
x_1_5_0_2 0
x_1_5_0_3 0
x_1_5_0_4 0
x_1_5_0_5 0
x_1_5_1_0 0
x_1_5_1_1 0
x_1_5_1_2 0
x_1_5_1_3 0
x_1_5_1_4 0
x_1_5_1_5 0
x_2_3_0_0 0
x_2_3_0_1 0
x_2_3_0_2 0
x_2_3_0_3 0
x_2_3_0_4 0
x_2_3_0_5 0
x_2_3_1_0 0
x_2_3_1_1 0
x_2_3_1_2 9.9999999999999956e-01
x_2_3_1_3 0
x_2_3_1_4 1
x_2_3_1_5 0
x_2_4_0_0 0
x_2_4_0_1 0
x_2_4_0_2 0
x_2_4_0_3 0
x_2_4_0_4 0
x_2_4_0_5 0
x_2_4_1_0 0
x_2_4_1_1 0
x_2_4_1_2 0
x_2_4_1_3 0
x_2_4_1_4 0
x_2_4_1_5 0
x_2_5_0_0 0
x_2_5_0_1 0
x_2_5_0_2 0
x_2_5_0_3 0
x_2_5_0_4 0
x_2_5_0_5 0
x_2_5_1_0 0
x_2_5_1_1 0
x_2_5_1_2 0
x_2_5_1_3 0
x_2_5_1_4 0
x_2_5_1_5 0
x_3_4_0_0 0
x_3_4_0_1 0
x_3_4_0_2 0
x_3_4_0_3 0
x_3_4_0_4 0
x_3_4_0_5 0
x_3_4_1_0 0
x_3_4_1_1 0
x_3_4_1_2 0
x_3_4_1_3 0
x_3_4_1_4 0
x_3_4_1_5 0
x_3_5_0_0 0
x_3_5_0_1 0
x_3_5_0_2 0
x_3_5_0_3 1
x_3_5_0_4 0
x_3_5_0_5 0
x_3_5_1_0 0
x_3_5_1_1 0
x_3_5_1_2 0
x_3_5_1_3 0
x_3_5_1_4 0
x_3_5_1_5 0
x_4_5_0_0 9.9999999999999978e-01
x_4_5_0_1 0
x_4_5_0_2 0
x_4_5_0_3 0
x_4_5_0_4 0
x_4_5_0_5 0
x_4_5_1_0 0
x_4_5_1_1 0
x_4_5_1_2 0
x_4_5_1_3 0
x_4_5_1_4 0
x_4_5_1_5 0
